137
100
67
45
37
32
29
49
1
20
11
32
56
28
56
1
13
39
20
15
68
40
55
18
21
32
44
23
51
29
42
43
56
19
27
5
33
56
14
10
67
50
32
22
3
29
37
29
3
7
47
17
58
52
61
52
26
15
44
29
38
24
44
29
16
31
68
28
8
15
1
43
29
37
33
11
71
49
47
26
9
48
44
39
71
14
29
4
14
74
54
53
18
26
46
8
57
32
19
3
29
21
24
22
26
38
23
41
35
48
38
57
16
33
9
18
22
1
56
8
36
45
34
25
72
56
28
20
62
73
30
48
16
21
44
23
20
26
29
